mixintcount/benchmarks/random_v2l/3_3_5011.smt2
(set-logic QF_LIA)
(set-info :ran/ran2.smt2)
(set-info :smt-lib-version 2.0)
(declare-fun x1 () Int)
(declare-fun x2 () Int)
(declare-fun x3 () Int)
(assert (<= (+ (* 8 x1) (* 5 x2) (* (- 3) x3) ) 2646))
(assert (<= (+ (* 10 x1) (* (- 7) x2) (* (- 6) x3) ) 4897))
(assert (<= (+ (* 4 x1) (* 3 x2) (* (- 1) x3) ) (- 4495)))
(assert (<= (+ (* 0 x1) (* 1 x2) (* (- 1) x3) ) (- 1565)))
(assert (<= (+ (* (- 3) x1) (* (- 7) x2) (* (- 4) x3) ) (- 4651)))
(assert (<= (+ (* 9 x1) (* (- 3) x2) (* 2 x3) ) 3441))
(assert (<= (+ (* 1 x1) (* 0 x2) (* 0 x3) ) 5011))
(assert (<= (+ (* (- 1) x1) (* 0 x2) (* 0 x3) ) 5011))
(assert (<= (+ (* 0 x1) (* 1 x2) (* 0 x3) ) 5011))
(assert (<= (+ (* 0 x1) (* (- 1) x2) (* 0 x3) ) 5011))
(assert (<= (+ (* 0 x1) (* 0 x2) (* 1 x3) ) 5011))
(assert (<= (+ (* 0 x1) (* 0 x2) (* (- 1) x3) ) 5011))
