mixintcount/benchmarks/random_v2l/3_3_5011.in
12 5
#	x1	x2	x3;		0 = Real; 1 = Integer
	1	1	1
1	8	5	-3	2646
1	10	-7	-6	4897
1	4	3	-1	-4495
1	0	1	-1	-1565
1	-3	-7	-4	-4651
1	9	-3	2	3441
1	1	0	0	5011
1	-1	0	0	5011
1	0	1	0	5011
1	0	-1	0	5011
1	0	0	1	5011
1	0	0	-1	5011
